122 5
10 10 10 10 10 

0 0 0 0 0 0 5 2 14 26 38 50 
0 0 0 0 0 0 4 3 4 5 7 
4 0 0 0 1 0 5 12 11 10 9 8 
4 0 0 0 2 0 3 12 10 6 
8 0 0 0 2 0 2 11 6 
8 0 0 0 4 0 2 9 8 
6 0 0 0 2 0 2 10 8 
7 0 0 0 1 0 1 13 
8 0 0 0 2 0 1 13 
8 0 0 0 3 0 1 13 
5 0 0 0 4 0 1 13 
2 0 0 0 4 0 1 13 
0 0 0 0 0 0 1 62 
0 0 0 0 0 0 3 15 16 17 
1 0 1 0 0 0 6 24 23 22 21 19 18 
10 0 2 0 0 0 4 24 23 20 19 
3 0 2 0 0 0 3 22 21 19 
2 0 1 0 0 0 1 20 
6 0 6 0 0 0 1 25 
9 0 3 0 0 0 1 25 
9 0 3 0 0 0 1 25 
5 0 2 0 0 0 1 25 
1 0 4 0 0 0 1 25 
5 0 1 0 0 0 1 25 
0 0 0 0 0 0 1 62 
0 0 0 0 0 0 6 27 28 29 30 31 33 
3 1 0 0 0 0 3 36 34 32 
1 3 0 0 0 0 3 36 34 32 
10 2 0 0 0 0 3 36 34 32 
3 4 0 0 0 0 3 36 34 32 
8 1 0 0 0 0 2 35 34 
7 2 0 0 0 0 1 35 
6 3 0 0 0 0 1 34 
10 4 0 0 0 0 1 37 
10 1 0 0 0 0 1 37 
6 4 0 0 0 0 1 37 
0 0 0 0 0 0 1 62 
0 0 0 0 0 0 5 39 40 41 42 43 
3 0 0 0 1 0 3 46 45 44 
6 0 0 0 2 0 3 48 46 45 
7 0 0 0 4 0 2 46 44 
1 0 0 0 2 0 2 48 45 
9 0 0 0 3 0 1 44 
1 0 0 0 4 0 2 48 47 
5 0 0 0 3 0 1 47 
2 0 0 0 2 0 1 47 
7 0 0 0 1 0 1 49 
10 0 0 0 3 0 1 49 
0 0 0 0 0 0 1 62 
0 0 0 0 0 0 5 51 52 53 54 60 
5 1 0 0 0 0 4 59 58 57 56 
8 2 0 0 0 0 3 58 57 55 
9 3 0 0 0 0 3 58 57 56 
4 5 0 0 0 0 3 58 57 56 
10 2 0 0 0 0 1 56 
3 2 0 0 0 0 1 61 
7 1 0 0 0 0 1 61 
9 3 0 0 0 0 1 61 
5 1 0 0 0 0 1 61 
7 5 0 0 0 0 1 61 
0 0 0 0 0 0 1 62 
0 0 0 0 0 0 2 63 75 
0 0 0 0 0 0 3 64 66 67 
5 0 0 0 0 1 3 71 68 65 
1 0 0 0 0 3 4 73 72 70 69 
1 0 0 0 0 3 2 71 69 
9 0 0 0 0 2 2 70 69 
6 0 0 0 0 3 1 69 
6 0 0 0 0 4 1 74 
8 0 0 0 0 2 1 74 
9 0 0 0 0 2 1 74 
6 0 0 0 0 3 1 74 
2 0 0 0 0 2 1 74 
0 0 0 0 0 0 1 87 
0 0 0 0 0 0 7 76 78 79 80 83 84 85 
1 0 0 0 1 0 1 77 
9 0 0 0 2 0 2 82 81 
3 0 0 0 7 0 1 81 
7 0 0 0 3 0 1 81 
9 0 0 0 2 0 1 81 
3 0 0 0 3 0 1 86 
5 0 0 0 2 0 1 86 
1 0 0 0 2 0 1 86 
4 0 0 0 2 0 1 86 
6 0 0 0 1 0 1 86 
0 0 0 0 0 0 1 87 
0 0 0 0 0 0 4 88 89 96 97 
6 0 1 0 0 0 4 95 93 91 90 
2 0 2 0 0 0 2 93 90 
9 0 3 0 0 0 1 92 
9 0 4 0 0 0 1 94 
4 0 1 0 0 0 1 98 
4 0 4 0 0 0 1 98 
2 0 3 0 0 0 1 98 
7 0 1 0 0 0 1 98 
2 0 3 0 0 0 1 98 
5 0 3 0 0 0 1 98 
0 0 0 0 0 0 1 99 
0 0 0 0 0 0 3 100 102 103 
5 1 0 0 0 0 3 109 104 101 
1 3 0 0 0 0 3 107 106 105 
4 3 0 0 0 0 3 108 107 105 
7 3 0 0 0 0 2 106 105 
9 4 0 0 0 0 1 105 
1 4 0 0 0 0 1 110 
9 1 0 0 0 0 1 110 
5 2 0 0 0 0 1 110 
10 3 0 0 0 0 1 110 
2 1 0 0 0 0 1 110 
0 0 0 0 0 0 1 111 
0 0 0 0 0 0 5 112 114 115 120 121 
3 0 0 0 0 1 2 119 113 
2 0 0 0 0 4 2 117 116 
5 0 0 0 0 3 2 118 116 
1 0 0 0 0 3 1 116 
6 0 0 0 0 2 1 122 
3 0 0 0 0 1 1 122 
8 0 0 0 0 4 1 122 
5 0 0 0 0 4 1 122 
3 0 0 0 0 2 1 122 
5 0 0 0 0 1 1 122 
0 0 0 0 0 0 0 
